32
75
60	1
59	1
58	1
56	3
55	3
54	2
53	1
52	1
51	1
50	1
49	1
46	2
45	3
44	1
43	1
42	1
41	1
40	2
39	1
38	3
37	1
35	2
34	1
33	1
32	1
31	2
30	2
27	3
26	1
25	1
23	2
16	2
